10	5
0	5	2	5	3	4	1
1	1	10
2	1	8
3	1	10
4	1	9
5	1	6
6	2	7	9
7	1	10
8	1	11
9	1	11
10	1	11
11	0
0	0	0	0	0	0	0
1	8	3	5	1	5	5
2	8	2	5	1	3	5
3	8	5	5	4	3	4
4	8	5	5	5	4	1
5	2	4	1	2	5	5
6	6	2	5	1	1	2
7	5	5	2	2	2	1
8	9	2	3	3	1	3
9	6	4	3	4	5	5
10	2	2	1	3	2	3
11	0	0	0	0	0	0
9	11	7	9	9
